
Gurobi 11.0.1 (win64) logging started Fri Mar 29 06:32:31 2024

Set parameter LogFile to value "C:\Projetos\Job_Rotation_Algorithms\Outputs\GurobiLogs\gurobi_log-output-76_hes-c73-CostaMirallesModel-NoExtraConstraint-2.log"
Gurobi Optimizer version 11.0.1 build v11.0.1rc0 (win64 - Windows 10.0 (19045.2))

CPU model: 11th Gen Intel(R) Core(TM) i7-1165G7 @ 2.80GHz, instruction set [SSE2|AVX|AVX2|AVX512]
Thread count: 4 physical cores, 8 logical processors, using up to 1 threads

WLS license 901039 - registered to Bitka Analytics
Optimize a model with 936 rows, 2695 columns and 33215 nonzeros
Model fingerprint: 0x69b5f256
Variable types: 2 continuous, 2693 integer (2693 binary)
Coefficient statistics:
  Matrix range     [1e+00, 2e+02]
  Objective range  [1e+00, 1e+00]
  Bounds range     [1e+00, 1e+02]
  RHS range        [1e+00, 1e+02]
Presolve removed 116 rows and 818 columns
Presolve time: 0.19s
Presolved: 820 rows, 1877 columns, 18128 nonzeros
Variable types: 0 continuous, 1877 integer (1876 binary)

Root relaxation: objective 5.600000e+01, 740 iterations, 0.02 seconds (0.02 work units)

    Nodes    |    Current Node    |     Objective Bounds      |     Work
 Expl Unexpl |  Obj  Depth IntInf | Incumbent    BestBd   Gap | It/Node Time

     0     0   56.00000    0   47          -   56.00000      -     -    0s
     0     0   56.00000    0   48          -   56.00000      -     -    0s
     0     0   56.00000    0  179          -   56.00000      -     -    0s
     0     0   56.00000    0  171          -   56.00000      -     -    0s
     0     0   56.00000    0  131          -   56.00000      -     -    0s
     0     0   56.00000    0  131          -   56.00000      -     -    0s
     0     0   56.00000    0   63          -   56.00000      -     -    0s
     0     0   56.00000    0   64          -   56.00000      -     -    0s
     0     0   56.00000    0   77          -   56.00000      -     -    0s
     0     0   56.00000    0   73          -   56.00000      -     -    0s
     0     0   56.00000    0   73          -   56.00000      -     -    0s
     0     0   56.00000    0   49          -   56.00000      -     -    0s
     0     0   56.00000    0   49          -   56.00000      -     -    0s
     0     0   56.00000    0   58          -   56.00000      -     -    0s
     0     0   56.00000    0   57          -   56.00000      -     -    0s
     0     0   56.00000    0   43          -   56.00000      -     -    0s
     0     0   56.00000    0  103          -   56.00000      -     -    0s
     0     0   56.00000    0   86          -   56.00000      -     -    0s
     0     0   56.00000    0   65          -   56.00000      -     -    0s
     0     0   56.00000    0   61          -   56.00000      -     -    0s
     0     0   56.00000    0   61          -   56.00000      -     -    0s
     0     2   56.00000    0   59          -   56.00000      -     -    0s
   739   405   55.00000   13  118          -   56.00000      -  26.2    5s
H  754   390                      48.0000000   55.00000  14.6%  31.5    5s
H  802   361                      50.0000000   55.00000  10.0%  34.4    5s
H 1026   309                      51.0000000   54.00000  5.88%  45.3    7s
H 1245   226                      52.0000000   54.00000  3.85%  50.8    8s
  1485   139   53.73810   21   54   52.00000   54.00000  3.85%  54.3   10s
  2734    76 infeasible   24        52.00000   54.00000  3.85%  56.7   15s
  3381   106 infeasible   25        52.00000   54.00000  3.85%  67.8   20s
  4245   195   53.55657   26  105   52.00000   54.00000  3.85%  72.1   25s
  5376    32   53.00000   33   87   52.00000   53.00000  1.92%  73.4   30s

Cutting planes:
  Cover: 46
  Clique: 39
  MIR: 2
  StrongCG: 3
  Flow cover: 15
  GUB cover: 3
  Zero half: 1

Explored 5654 nodes (453041 simplex iterations) in 32.02 seconds (30.26 work units)
Thread count was 1 (of 8 available processors)

Solution count 4: 52 51 50 48 

Optimal solution found (tolerance 1.00e-03)
Best objective 5.200000000000e+01, best bound 5.200000000000e+01, gap 0.0000%
